data;

param n := 80;

set E :=
	1 6
	1 7
	1 8
	1 10
	1 11
	1 12
	1 13
	1 14
	1 16
	1 17
	1 19
	1 20
	1 21
	1 28
	1 29
	1 30
	1 33
	1 34
	1 35
	1 39
	1 40
	1 42
	1 44
	1 45
	1 48
	1 49
	1 51
	1 52
	1 54
	1 55
	1 58
	1 59
	1 60
	1 61
	1 64
	1 65
	1 66
	1 67
	1 68
	1 69
	1 71
	1 76
	1 77
	1 80
	2 5
	2 8
	2 9
	2 10
	2 14
	2 15
	2 17
	2 22
	2 23
	2 25
	2 26
	2 27
	2 32
	2 35
	2 37
	2 42
	2 43
	2 44
	2 47
	2 50
	2 52
	2 58
	2 61
	2 62
	2 63
	2 70
	2 71
	2 72
	2 79
	3 4
	3 6
	3 11
	3 13
	3 16
	3 20
	3 21
	3 39
	3 40
	3 45
	3 48
	3 49
	3 51
	3 56
	3 59
	3 60
	3 65
	3 66
	3 68
	3 73
	4 6
	4 13
	4 16
	4 38
	4 40
	4 45
	4 48
	4 49
	4 56
	4 66
	4 73
	4 78
	5 9
	5 10
	5 14
	5 15
	5 18
	5 22
	5 23
	5 25
	5 26
	5 27
	5 32
	5 35
	5 37
	5 41
	5 42
	5 43
	5 47
	5 50
	5 53
	5 57
	5 61
	5 63
	5 70
	5 72
	5 79
	6 7
	6 9
	6 10
	6 11
	6 12
	6 13
	6 14
	6 16
	6 17
	6 19
	6 20
	6 21
	6 33
	6 37
	6 39
	6 40
	6 45
	6 48
	6 49
	6 51
	6 52
	6 55
	6 58
	6 59
	6 60
	6 61
	6 64
	6 65
	6 66
	6 68
	6 73
	7 8
	7 9
	7 10
	7 11
	7 12
	7 14
	7 16
	7 17
	7 19
	7 20
	7 21
	7 27
	7 28
	7 29
	7 30
	7 33
	7 34
	7 35
	7 37
	7 39
	7 40
	7 42
	7 44
	7 45
	7 48
	7 49
	7 51
	7 52
	7 54
	7 55
	7 58
	7 60
	7 61
	7 64
	7 65
	7 66
	7 67
	7 68
	7 69
	7 71
	7 76
	7 77
	7 80
	8 9
	8 10
	8 12
	8 14
	8 17
	8 22
	8 29
	8 33
	8 34
	8 35
	8 42
	8 43
	8 44
	8 52
	8 58
	8 61
	8 62
	8 64
	8 67
	8 69
	8 71
	8 74
	8 75
	8 77
	8 80
	9 10
	9 11
	9 12
	9 14
	9 17
	9 21
	9 22
	9 23
	9 25
	9 26
	9 27
	9 32
	9 35
	9 37
	9 39
	9 42
	9 43
	9 44
	9 46
	9 47
	9 49
	9 50
	9 51
	9 52
	9 57
	9 58
	9 61
	9 63
	9 70
	9 71
	9 72
	9 79
	10 11
	10 12
	10 14
	10 16
	10 17
	10 21
	10 22
	10 23
	10 27
	10 32
	10 33
	10 34
	10 35
	10 37
	10 39
	10 40
	10 42
	10 43
	10 44
	10 45
	10 46
	10 47
	10 48
	10 49
	10 50
	10 51
	10 52
	10 57
	10 58
	10 61
	10 63
	10 70
	10 71
	10 72
	10 79
	11 12
	11 13
	11 14
	11 16
	11 17
	11 19
	11 20
	11 21
	11 28
	11 29
	11 30
	11 33
	11 34
	11 35
	11 37
	11 39
	11 40
	11 42
	11 44
	11 45
	11 48
	11 49
	11 51
	11 52
	11 54
	11 55
	11 58
	11 59
	11 60
	11 61
	11 64
	11 65
	11 66
	11 68
	11 69
	11 71
	11 76
	11 77
	12 13
	12 14
	12 16
	12 17
	12 19
	12 20
	12 21
	12 28
	12 29
	12 30
	12 33
	12 34
	12 35
	12 37
	12 39
	12 40
	12 42
	12 44
	12 45
	12 48
	12 49
	12 51
	12 52
	12 54
	12 55
	12 58
	12 60
	12 61
	12 64
	12 65
	12 66
	12 67
	12 68
	12 69
	12 71
	12 76
	12 77
	12 80
	13 16
	13 19
	13 20
	13 21
	13 33
	13 39
	13 40
	13 45
	13 48
	13 49
	13 51
	13 54
	13 55
	13 59
	13 60
	13 65
	13 66
	13 68
	13 73
	14 17
	14 21
	14 22
	14 23
	14 27
	14 32
	14 33
	14 34
	14 35
	14 37
	14 39
	14 42
	14 43
	14 44
	14 49
	14 51
	14 52
	14 58
	14 61
	14 62
	14 64
	14 67
	14 69
	14 70
	14 71
	14 72
	14 74
	14 77
	14 79
	14 80
	15 18
	15 22
	15 23
	15 25
	15 26
	15 27
	15 32
	15 41
	15 47
	15 50
	15 53
	15 57
	15 63
	15 70
	15 72
	15 79
	16 19
	16 20
	16 21
	16 33
	16 36
	16 37
	16 39
	16 40
	16 45
	16 46
	16 48
	16 49
	16 51
	16 55
	16 56
	16 58
	16 59
	16 60
	16 65
	16 66
	16 68
	16 73
	17 19
	17 20
	17 21
	17 22
	17 27
	17 29
	17 30
	17 33
	17 34
	17 35
	17 37
	17 39
	17 42
	17 43
	17 44
	17 49
	17 51
	17 52
	17 55
	17 58
	17 61
	17 64
	17 65
	17 67
	17 68
	17 69
	17 71
	17 74
	17 76
	17 77
	17 80
	18 23
	18 24
	18 25
	18 26
	18 27
	18 31
	18 32
	18 37
	18 41
	18 46
	18 47
	18 50
	18 53
	18 57
	18 63
	18 70
	18 72
	18 79
	19 20
	19 21
	19 28
	19 29
	19 30
	19 33
	19 34
	19 39
	19 40
	19 45
	19 48
	19 49
	19 51
	19 52
	19 54
	19 55
	19 58
	19 59
	19 60
	19 64
	19 65
	19 66
	19 68
	19 69
	19 71
	19 76
	19 77
	20 21
	20 28
	20 29
	20 30
	20 33
	20 34
	20 39
	20 40
	20 45
	20 48
	20 49
	20 51
	20 54
	20 55
	20 58
	20 59
	20 60
	20 64
	20 65
	20 66
	20 68
	20 69
	20 76
	21 22
	21 23
	21 27
	21 33
	21 34
	21 35
	21 37
	21 39
	21 40
	21 42
	21 44
	21 45
	21 48
	21 49
	21 51
	21 52
	21 55
	21 58
	21 61
	21 64
	21 65
	21 66
	21 68
	21 69
	21 71
	21 73
	22 23
	22 25
	22 26
	22 27
	22 32
	22 35
	22 37
	22 39
	22 42
	22 43
	22 44
	22 47
	22 50
	22 52
	22 57
	22 58
	22 61
	22 63
	22 70
	22 71
	22 72
	22 79
	23 25
	23 26
	23 27
	23 32
	23 35
	23 37
	23 39
	23 41
	23 42
	23 43
	23 46
	23 47
	23 50
	23 53
	23 57
	23 61
	23 63
	23 70
	23 72
	23 79
	24 25
	24 31
	24 36
	24 46
	24 47
	24 50
	24 56
	24 57
	24 78
	25 26
	25 27
	25 31
	25 32
	25 37
	25 41
	25 46
	25 47
	25 50
	25 53
	25 57
	25 63
	25 70
	25 72
	25 79
	26 27
	26 32
	26 37
	26 41
	26 43
	26 47
	26 50
	26 53
	26 63
	26 70
	26 72
	26 79
	27 32
	27 35
	27 36
	27 37
	27 39
	27 41
	27 42
	27 43
	27 46
	27 47
	27 49
	27 50
	27 51
	27 52
	27 53
	27 57
	27 58
	27 61
	27 63
	27 70
	27 72
	27 79
	28 29
	28 30
	28 33
	28 34
	28 54
	28 55
	28 59
	28 60
	28 64
	28 65
	28 68
	28 69
	28 76
	28 77
	29 30
	29 33
	29 34
	29 44
	29 51
	29 52
	29 54
	29 55
	29 58
	29 60
	29 64
	29 65
	29 67
	29 68
	29 69
	29 71
	29 76
	29 77
	29 80
	30 33
	30 34
	30 54
	30 55
	30 58
	30 59
	30 60
	30 64
	30 65
	30 68
	30 69
	30 71
	30 76
	30 77
	31 36
	31 46
	31 47
	31 50
	31 56
	31 57
	31 63
	31 78
	32 35
	32 37
	32 41
	32 42
	32 43
	32 47
	32 50
	32 53
	32 61
	32 63
	32 70
	32 72
	32 79
	33 34
	33 35
	33 39
	33 40
	33 42
	33 44
	33 45
	33 48
	33 49
	33 51
	33 52
	33 54
	33 55
	33 58
	33 59
	33 60
	33 61
	33 64
	33 65
	33 66
	33 67
	33 68
	33 69
	33 71
	33 76
	33 77
	33 80
	34 35
	34 39
	34 42
	34 43
	34 44
	34 49
	34 51
	34 52
	34 54
	34 55
	34 58
	34 61
	34 64
	34 65
	34 67
	34 68
	34 69
	34 71
	34 74
	34 76
	34 77
	34 80
	35 37
	35 39
	35 42
	35 43
	35 44
	35 49
	35 51
	35 52
	35 58
	35 61
	35 62
	35 64
	35 67
	35 69
	35 70
	35 71
	35 72
	35 74
	35 77
	35 79
	35 80
	36 37
	36 38
	36 46
	36 47
	36 50
	36 56
	36 57
	36 73
	36 78
	37 39
	37 40
	37 42
	37 43
	37 44
	37 46
	37 47
	37 49
	37 50
	37 51
	37 52
	37 57
	37 58
	37 61
	37 63
	37 70
	37 72
	37 79
	38 56
	38 73
	38 78
	39 40
	39 42
	39 45
	39 46
	39 48
	39 49
	39 51
	39 52
	39 55
	39 57
	39 58
	39 61
	39 64
	39 65
	39 66
	39 68
	39 73
	40 45
	40 48
	40 49
	40 51
	40 55
	40 58
	40 59
	40 60
	40 61
	40 65
	40 66
	40 68
	40 73
	41 47
	41 50
	41 53
	41 57
	41 63
	41 70
	41 72
	41 79
	42 43
	42 44
	42 51
	42 52
	42 58
	42 61
	42 62
	42 64
	42 67
	42 69
	42 70
	42 71
	42 72
	42 74
	42 75
	42 77
	42 79
	42 80
	43 44
	43 52
	43 58
	43 61
	43 62
	43 67
	43 69
	43 70
	43 71
	43 72
	43 74
	43 75
	43 79
	43 80
	44 51
	44 52
	44 58
	44 61
	44 62
	44 64
	44 67
	44 69
	44 70
	44 71
	44 74
	44 75
	44 77
	44 79
	44 80
	45 48
	45 49
	45 51
	45 55
	45 58
	45 59
	45 60
	45 65
	45 66
	45 68
	45 73
	46 47
	46 50
	46 56
	46 57
	46 63
	46 73
	46 78
	47 50
	47 53
	47 57
	47 63
	47 70
	47 72
	47 79
	48 49
	48 51
	48 55
	48 58
	48 59
	48 60
	48 65
	48 66
	48 68
	48 73
	49 51
	49 52
	49 55
	49 58
	49 59
	49 60
	49 61
	49 64
	49 65
	49 66
	49 68
	49 73
	50 53
	50 57
	50 63
	50 70
	50 72
	50 79
	51 52
	51 55
	51 58
	51 59
	51 60
	51 61
	51 64
	51 65
	51 66
	51 68
	51 69
	51 71
	51 73
	51 76
	52 55
	52 58
	52 61
	52 64
	52 67
	52 68
	52 69
	52 70
	52 71
	52 74
	52 76
	52 77
	52 79
	52 80
	53 57
	53 63
	53 70
	53 72
	53 79
	54 55
	54 59
	54 60
	54 64
	54 65
	54 68
	54 69
	54 76
	54 77
	55 58
	55 59
	55 60
	55 64
	55 65
	55 66
	55 68
	55 69
	55 71
	55 76
	55 77
	56 73
	56 78
	57 63
	57 70
	57 79
	58 61
	58 64
	58 65
	58 66
	58 67
	58 68
	58 69
	58 71
	58 76
	58 77
	58 80
	59 60
	59 65
	59 66
	59 68
	59 76
	60 64
	60 65
	60 66
	60 68
	60 76
	61 64
	61 67
	61 69
	61 70
	61 71
	61 72
	61 74
	61 77
	61 79
	61 80
	62 67
	62 71
	62 74
	62 75
	62 80
	63 70
	63 72
	63 79
	64 65
	64 67
	64 68
	64 69
	64 71
	64 74
	64 76
	64 77
	64 80
	65 66
	65 68
	65 69
	65 76
	66 68
	66 73
	67 69
	67 71
	67 74
	67 75
	67 76
	67 77
	67 80
	68 69
	68 76
	68 77
	69 71
	69 74
	69 76
	69 77
	69 80
	70 72
	70 79
	71 74
	71 76
	71 77
	71 80
	72 79
	73 78
	74 75
	74 77
	74 80
	75 80
	76 77
	76 80
	77 80
;

param c :=
	1 1
	2 4
	3 8
	4 2
	5 7
	6 6
	7 4
	8 8
	9 1
	10 5
	11 1
	12 2
	13 2
	14 5
	15 4
	16 2
	17 3
	18 4
	19 1
	20 6
	21 5
	22 5
	23 4
	24 5
	25 3
	26 2
	27 2
	28 5
	29 7
	30 2
	31 5
	32 4
	33 4
	34 2
	35 6
	36 9
	37 7
	38 1
	39 3
	40 1
	41 3
	42 2
	43 1
	44 8
	45 1
	46 4
	47 2
	48 6
	49 8
	50 9
	51 5
	52 5
	53 7
	54 5
	55 7
	56 5
	57 4
	58 3
	59 7
	60 1
	61 2
	62 8
	63 5
	64 8
	65 5
	66 5
	67 7
	68 9
	69 6
	70 8
	71 6
	72 4
	73 4
	74 1
	75 3
	76 6
	77 8
	78 8
	79 7
	80 5
;

